
  52    4
  10   10   10   10

   0   0   0   0   0   3 2 3 5 
  10   1   1   0   0   2 16 4 
   7   1   0   1   0   2 7 4 
   2   0   2   0   1   3 9 8 6 
   3   0   3   0   1   3 12 10 8 
   7   0   3   0   1   3 13 11 10 
   8   4   0   0   4   3 15 11 10 
  10   0   0   1   4   4 22 15 14 11 
   2   3   2   0   0   5 25 24 22 17 15 
   7   0   1   4   0   4 24 22 17 14 
   4   0   1   0   2   6 26 24 20 19 18 17 
   9   3   0   0   3   3 24 18 15 
   5   1   2   0   0   2 25 15 
   1   0   4   2   0   4 26 21 19 18 
  10   3   1   0   0   4 26 21 20 19 
   4   3   0   0   3   3 25 21 19 
   1   2   2   0   0   6 33 32 31 30 28 21 
  10   0   1   0   2   7 36 35 33 32 30 28 25 
  10   0   1   0   4   8 36 35 34 33 32 31 30 28 
   2   3   0   4   0   4 36 32 31 23 
   6   2   0   2   0   3 36 34 23 
   5   3   3   0   0   3 33 31 23 
   4   4   3   0   0   3 35 29 27 
   3   0   2   1   0   3 33 31 27 
   1   0   0   3   2   4 46 41 34 29 
   3   0   2   1   0   4 39 38 35 28 
   5   4   0   2   0   6 46 42 41 39 38 37 
   5   2   0   2   0   7 46 45 44 42 41 40 37 
   8   0   2   4   0   5 45 42 39 38 37 
   7   0   4   0   1   6 48 46 45 44 42 39 
   2   2   0   2   0   5 45 44 42 39 37 
   3   2   0   0   2   5 45 44 42 39 37 
  10   0   0   1   1   5 48 45 44 42 39 
   1   2   5   0   0   2 39 38 
   7   1   0   4   0   3 42 40 37 
   2   0   5   0   3   3 45 44 37 
   1   0   2   5   0   3 51 48 43 
   3   0   4   4   0   3 48 44 43 
   2   3   0   2   0   1 40 
   8   0   1   4   0   2 51 43 
   5   0   4   0   4   2 48 43 
   4   0   0   2   3   1 43 
   2   3   3   0   0   2 50 47 
   8   0   0   1   1   2 50 47 
   9   1   0   2   0   1 47 
   3   0   4   0   4   1 47 
   2   4   0   0   1   1 49 
   2   0   0   3   7   1 50 
   4   2   2   0   0   1 52
  10   4   0   0   1   1 52
   1   2   0   3   0   1 52
   0   0   0   0   0   0 
